Route #1: 0 5 40 17 10 2 38 16 18 0
Route #2: 0 6 27 14 42 13 4 43 11 0
Route #3: 0 41 12 37 7 28 26 0
Route #4: 0 36 39 29 32 31 8 0
Route #5: 0 34 15 50 30 9 44 0
Route #6: 0 1 20 21 23 45 47 25 24 22 0
Route #7: 0 46 49 35 3 19 33 48 0
Cost 1245:
